#===============================================================================
# Created using the Atomic Simulation Environment (ASE)

# Thu Jul 25 22:59:23 2024

#=======================================================
lattice_vector 0.0000000000000000 8.1539999999999999 8.1539999999999999 
lattice_vector 8.1539999999999999 0.0000000000000000 8.1539999999999999 
lattice_vector 8.1539999999999999 8.1539999999999999 0.0000000000000000 
atom 0.0000000000000000 0.0000000000000000 0.0000000000000000 Ba
atom 2.7180000000000000 2.7180000000000000 2.7180000000000000 O
atom 2.7180000000000000 2.7180000000000000 0.0000000000000000 Ba
atom 5.4359999999999999 5.4359999999999999 2.7180000000000000 O
atom 5.4359999999999999 5.4359999999999999 0.0000000000000000 Ba
atom 8.1539999999999999 8.1539999999999999 2.7180000000000000 O
atom 2.7180000000000000 0.0000000000000000 2.7180000000000000 Ba
atom 5.4359999999999999 2.7180000000000000 5.4359999999999999 O
atom 5.4359999999999999 2.7180000000000000 2.7180000000000000 Ba
atom 8.1539999999999999 5.4359999999999999 5.4359999999999999 O
atom 8.1539999999999999 5.4359999999999999 2.7180000000000000 Ba
atom 10.8719999999999999 8.1539999999999999 5.4359999999999999 O
atom 5.4359999999999999 0.0000000000000000 5.4359999999999999 Ba
atom 8.1539999999999999 2.7180000000000000 8.1539999999999999 O
atom 8.1539999999999999 2.7180000000000000 5.4359999999999999 Ba
atom 10.8719999999999999 5.4359999999999999 8.1539999999999999 O
atom 10.8719999999999999 5.4359999999999999 5.4359999999999999 Ba
atom 13.5899999999999999 8.1539999999999999 8.1539999999999999 O
atom 0.0000000000000000 2.7180000000000000 2.7180000000000000 Ba
atom 2.7180000000000000 5.4359999999999999 5.4359999999999999 O
atom 2.7180000000000000 5.4359999999999999 2.7180000000000000 Ba
atom 5.4359999999999999 8.1539999999999999 5.4359999999999999 O
atom 5.4359999999999999 8.1539999999999999 2.7180000000000000 Ba
atom 8.1539999999999999 10.8719999999999999 5.4359999999999999 O
atom 2.7180000000000000 2.7180000000000000 5.4359999999999999 Ba
atom 5.4359999999999999 5.4359999999999999 8.1539999999999999 O
atom 5.4359999999999999 5.4359999999999999 5.4359999999999999 Ba
atom 8.1539999999999999 8.1539999999999999 8.1539999999999999 O
atom 8.1539999999999999 8.1539999999999999 5.4359999999999999 Ba
atom 10.8719999999999999 10.8719999999999999 8.1539999999999999 O
atom 5.4359999999999999 2.7180000000000000 8.1539999999999999 Ba
atom 8.1539999999999999 5.4359999999999999 10.8719999999999999 O
atom 8.1539999999999999 5.4359999999999999 8.1539999999999999 Ba
atom 10.8719999999999999 8.1539999999999999 10.8719999999999999 O
atom 10.8719999999999999 8.1539999999999999 8.1539999999999999 Ba
atom 13.5899999999999999 10.8719999999999999 10.8719999999999999 O
atom 0.0000000000000000 5.4359999999999999 5.4359999999999999 Ba
atom 2.7180000000000000 8.1539999999999999 8.1539999999999999 O
atom 2.7180000000000000 8.1539999999999999 5.4359999999999999 Ba
atom 5.4359999999999999 10.8719999999999999 8.1539999999999999 O
atom 5.4359999999999999 10.8719999999999999 5.4359999999999999 Ba
atom 8.1539999999999999 13.5899999999999999 8.1539999999999999 O
atom 2.7180000000000000 5.4359999999999999 8.1539999999999999 Ba
atom 5.4359999999999999 8.1539999999999999 10.8719999999999999 O
atom 5.4359999999999999 8.1539999999999999 8.1539999999999999 Ba
atom 8.1539999999999999 10.8719999999999999 10.8719999999999999 O
atom 8.1539999999999999 10.8719999999999999 8.1539999999999999 Ba
atom 10.8719999999999999 13.5899999999999999 10.8719999999999999 O
atom 5.4359999999999999 5.4359999999999999 10.8719999999999999 Ba
atom 8.1539999999999999 8.1539999999999999 13.5899999999999999 O
atom 8.1539999999999999 8.1539999999999999 10.8719999999999999 Ba
atom 10.8719999999999999 10.8719999999999999 13.5899999999999999 O
atom 10.8719999999999999 10.8719999999999999 10.8719999999999999 Ba
atom 13.5899999999999999 13.5899999999999999 13.5899999999999999 O
