#===============================================================================
# Created using the Atomic Simulation Environment (ASE)

# Thu Jul 25 22:59:23 2024

#=======================================================
lattice_vector 0.0000000000000000 9.7124999999999986 9.7124999999999986 
lattice_vector 9.7124999999999986 0.0000000000000000 9.7124999999999986 
lattice_vector 9.7124999999999986 9.7124999999999986 0.0000000000000000 
atom 0.0000000000000000 0.0000000000000000 0.0000000000000000 Ba
atom 3.2374999999999998 3.2374999999999998 3.2374999999999998 Se
atom 3.2374999999999998 3.2374999999999998 0.0000000000000000 Ba
atom 6.4749999999999996 6.4749999999999996 3.2374999999999998 Se
atom 6.4749999999999996 6.4749999999999996 0.0000000000000000 Ba
atom 9.7124999999999986 9.7124999999999986 3.2374999999999998 Se
atom 3.2374999999999998 0.0000000000000000 3.2374999999999998 Ba
atom 6.4749999999999996 3.2374999999999998 6.4749999999999996 Se
atom 6.4749999999999996 3.2374999999999998 3.2374999999999998 Ba
atom 9.7124999999999986 6.4749999999999996 6.4749999999999996 Se
atom 9.7124999999999986 6.4749999999999996 3.2374999999999998 Ba
atom 12.9499999999999993 9.7124999999999986 6.4749999999999996 Se
atom 6.4749999999999996 0.0000000000000000 6.4749999999999996 Ba
atom 9.7124999999999986 3.2374999999999998 9.7124999999999986 Se
atom 9.7124999999999986 3.2374999999999998 6.4749999999999996 Ba
atom 12.9499999999999993 6.4749999999999996 9.7124999999999986 Se
atom 12.9499999999999993 6.4749999999999996 6.4749999999999996 Ba
atom 16.1875000000000000 9.7124999999999986 9.7124999999999986 Se
atom 0.0000000000000000 3.2374999999999998 3.2374999999999998 Ba
atom 3.2374999999999998 6.4749999999999996 6.4749999999999996 Se
atom 3.2374999999999998 6.4749999999999996 3.2374999999999998 Ba
atom 6.4749999999999996 9.7124999999999986 6.4749999999999996 Se
atom 6.4749999999999996 9.7124999999999986 3.2374999999999998 Ba
atom 9.7124999999999986 12.9499999999999993 6.4749999999999996 Se
atom 3.2374999999999998 3.2374999999999998 6.4749999999999996 Ba
atom 6.4749999999999996 6.4749999999999996 9.7124999999999986 Se
atom 6.4749999999999996 6.4749999999999996 6.4749999999999996 Ba
atom 9.7124999999999986 9.7124999999999986 9.7124999999999986 Se
atom 9.7124999999999986 9.7124999999999986 6.4749999999999996 Ba
atom 12.9499999999999993 12.9499999999999993 9.7124999999999986 Se
atom 6.4749999999999996 3.2374999999999998 9.7124999999999986 Ba
atom 9.7124999999999986 6.4749999999999996 12.9499999999999993 Se
atom 9.7124999999999986 6.4749999999999996 9.7124999999999986 Ba
atom 12.9499999999999993 9.7124999999999986 12.9499999999999993 Se
atom 12.9499999999999993 9.7124999999999986 9.7124999999999986 Ba
atom 16.1875000000000000 12.9499999999999993 12.9499999999999993 Se
atom 0.0000000000000000 6.4749999999999996 6.4749999999999996 Ba
atom 3.2374999999999998 9.7124999999999986 9.7124999999999986 Se
atom 3.2374999999999998 9.7124999999999986 6.4749999999999996 Ba
atom 6.4749999999999996 12.9499999999999993 9.7124999999999986 Se
atom 6.4749999999999996 12.9499999999999993 6.4749999999999996 Ba
atom 9.7124999999999986 16.1875000000000000 9.7124999999999986 Se
atom 3.2374999999999998 6.4749999999999996 9.7124999999999986 Ba
atom 6.4749999999999996 9.7124999999999986 12.9499999999999993 Se
atom 6.4749999999999996 9.7124999999999986 9.7124999999999986 Ba
atom 9.7124999999999986 12.9499999999999993 12.9499999999999993 Se
atom 9.7124999999999986 12.9499999999999993 9.7124999999999986 Ba
atom 12.9499999999999993 16.1875000000000000 12.9499999999999993 Se
atom 6.4749999999999996 6.4749999999999996 12.9499999999999993 Ba
atom 9.7124999999999986 9.7124999999999986 16.1875000000000000 Se
atom 9.7124999999999986 9.7124999999999986 12.9499999999999993 Ba
atom 12.9499999999999993 12.9499999999999993 16.1875000000000000 Se
atom 12.9499999999999993 12.9499999999999993 12.9499999999999993 Ba
atom 16.1875000000000000 16.1875000000000000 16.1875000000000000 Se
