2D Soccer Balls qHP                     
   1.00000000000000     
    15.9400447080597694    0.0000000000000000    0.0000000000000000
     0.0000000000000000    9.1760163897249942    0.0000000000000000
     0.0000000000000000    0.0000000000000000   30.0000000000000000
   C 
   120
Direct
  0.8054185691560725  0.0322555621714353  0.4235062082497210
  0.3054185168630333  0.9677444393406258  0.4235061939658257
  0.8526029189560697  0.0811635869869683  0.4627205498989834
  0.3526028985120382  0.9188363985855635  0.4627205344949054
  0.8125212516528558  0.1624786856431457  0.5004451116235581
  0.3125212247731253  0.8375212886123721  0.5004450983575384
  0.7114078639684992  0.1624755151219951  0.5004582204027016
  0.2114078512425336  0.8375244078566073  0.5004582165691206
  0.6713148883008752  0.0810479904176183  0.4627582882077542
  0.1713148630270799  0.9189519665119468  0.4627583061120672
  0.7184616946529633  0.0321610171539469  0.4235330718210543
  0.2184616445160448  0.9678389557112113  0.4235330834221774
  0.6734045629559173  0.9110559962920044  0.4034593133829355
  0.1734045052506298  0.0889439990255424  0.4034593479772927
  0.6014576299396882  0.8849493229575754  0.4311070039906195
  0.1014576197168725  0.1150506645199472  0.4311070599917809
  0.6025930741088985  0.9911815994298454  0.4673189622320383
  0.1025930693054045  0.0088183679118077  0.4673189964007901
  0.7113946717904837  0.3378434081234886  0.4999973426892039
  0.2113946937091779  0.6621565464960770  0.4999973456043931
  0.8125177357377245  0.3378666186170849  0.4999953747151303
  0.3125177456803110  0.6621333797486708  0.4999953639940460
  0.8363663670600131  0.4142543099495548  0.4566501776440892
  0.3363663698296980  0.5857456797616872  0.4566501618080526
  0.7619481012530680  0.4448712435565946  0.4308362204876381
  0.2619480839598923  0.5551287600735338  0.4308362195713339
  0.6875430356567267  0.4142000340618763  0.4566476326029075
  0.1875430225042910  0.5857999558423808  0.4566476118759732
  0.6170688561238588  0.5005942315762393  0.4513976678909760
  0.1170683643992058  0.4994068084391716  0.4513973694941678
  0.5573706273790406  0.5382789715220472  0.4899698756645655
  0.0573706099459493  0.4617211225826692  0.4899698592674239
  0.6025646586634772  0.5090511771912397  0.5331477248600708
  0.1025646395090114  0.4909488449201017  0.5331477298328468
  0.6713072798651766  0.4192276596650401  0.5377015748482022
  0.1713072657717213  0.5807723212576007  0.5377015828266198
  0.7184820535851586  0.4680935843089359  0.5769119703146013
  0.2184820402703984  0.5319064057418602  0.5769119797556794
  0.8054353522139108  0.4680480180698533  0.5769206039857513
  0.3054353397598183  0.5319519931679840  0.5769205903177224
  0.8526024351254596  0.4191875616096965  0.5377046369563598
  0.3526024265238268  0.5808124085074692  0.5377046224792412
  0.9213200019806275  0.5090613589248881  0.5331400714338478
  0.4213199895877075  0.4909386031988325  0.5331400536788747
  0.9224389498907561  0.6152992700613313  0.5693527365899343
  0.4224388917098281  0.3847006896198067  0.5693527095440488
  0.9494942199203480  0.7572777969373299  0.5613724560050373
  0.4494941464304691  0.2427221997668572  0.5613724229310366
  0.9050413949999827  0.8797212121742858  0.5802251034011100
  0.4050413269230301  0.1202788058955462  0.5802250660062258
  0.9068339867306234  0.9996197591052608  0.5490394566741035
  0.4068339450026019  0.0003802655647555  0.5490394228766935
  0.8350862177000684  0.8544981918517827  0.6075774140794159
  0.3350861782045015  0.1455017881064747  0.6075773927390911
  0.8072640833960707  0.7067168176949076  0.6161227884958328
  0.3072640660345226  0.2932831581175359  0.6161227805961709
  0.8504708022771886  0.5891775885577704  0.5969807182364099
  0.3504707630750697  0.4108224024274174  0.5969806913884306
  0.7166321399803517  0.7067022553682779  0.6161348240815806
  0.2166321308085675  0.2932977136206322  0.6161348271453632
  0.6888510213355635  0.8545042199203684  0.6075864056724541
  0.1888509987417266  0.1454957319793090  0.6075864198979828
  0.7619769568549571  0.9452076993669157  0.6021506190945439
  0.2619769297743521  0.0547922642402559  0.6021506149627490
  0.8363811742105026  0.0860867395742732  0.5437921832254847
  0.3363811439694296  0.9139132770969398  0.5437921630838557
  0.7619719137124420  0.0554636979043235  0.5696220185523101
  0.2619718966488340  0.9445362612720080  0.5696220119091180
  0.6875500458998132  0.0861191675726365  0.5438142643556153
  0.1875500284037724  0.9138807422838934  0.5438142728633071
  0.6170832833792949  0.9996848957590611  0.5490648512757714
  0.1170832575556862  0.0003150077992130  0.5490648772102582
  0.6189006782010242  0.8797380407900216  0.5802446876176524
  0.1189006491242985  0.1202619059643213  0.5802447106726054
  0.5574059315221181  0.9618438864885563  0.5104920930573539
  0.0574059307220919  0.0381560451476726  0.5104921194550998
  0.5455609216264591  0.7985812991450205  0.5173642594149219
  0.0455609114814488  0.2014186429481351  0.5173642938881895
  0.5744128195053320  0.7572868851918376  0.5613974687988794
  0.0744128051394867  0.2427130767003365  0.5613974929284725
  0.5455165427309269  0.7015840266668032  0.4831289090978720
  0.0455165420797628  0.2984159965673480  0.4831289408607876
  0.5744337464504592  0.7429801903901866  0.4391112403299523
  0.0744337444539247  0.2570198249784596  0.4391112985324766
  0.6014342994113990  0.6152917582563173  0.5693712268409128
  0.1014342655071725  0.3847082197087446  0.5693712508095313
  0.6734184454833779  0.5891701566797872  0.5969905144753925
  0.1734184397931249  0.4108298184463287  0.5969905267305882
  0.6188821619698263  0.6205590922863964  0.4202297133593410
  0.1188821227739663  0.3794409603001254  0.4202297240165675
  0.6888025745066313  0.6457663097093680  0.3928660512516031
  0.1888025092525315  0.3542336724013581  0.3928660697629587
  0.7165971690890007  0.7935411826963622  0.3843035405256366
  0.2165970825168352  0.2064588154402883  0.3843035687375420
  0.8072263489487338  0.7935759988061459  0.3843028756057073
  0.3072262594697640  0.2064239850136246  0.3843028683409588
  0.8504398747865721  0.9111107029044964  0.4034441027432625
  0.3504398079384061  0.0888893053991590  0.4034440805196223
  0.9224187818576628  0.8850249242551244  0.4310775351606124
  0.4224187387052848  0.1149750589968317  0.4310775046268961
  0.7619419987119981  0.5550935894347490  0.3983071728844763
  0.2619419426600124  0.4449064128459864  0.3983071577762515
  0.8350451713544070  0.6458188223429682  0.3928738493043943
  0.3350451032312515  0.3541811581317338  0.3928738217099849
  0.9049865764506377  0.6206506230262263  0.4202370621447946
  0.4049865435910781  0.3793493482103508  0.4202370225836343
  0.9068131054285558  0.5007041044012361  0.4514010834976907
  0.4068131026509129  0.4992958698235325  0.4514010550899207
  0.9665168738776796  0.5383542229064291  0.4899634888699139
  0.4665168708116859  0.4616457444039441  0.4899634518018999
  0.9784044759503822  0.7016515883228898  0.4831084835332199
  0.4784044528837790  0.2983483851798398  0.4831084577280102
  0.9783700128574965  0.7986170633174535  0.5173415002783101
  0.4783699750214744  0.2013829255635778  0.5173414782532922
  0.9664857557884455  0.9618774908892801  0.5104681776775667
  0.4664857315203598  0.0381225067666733  0.5104681499495226
  0.9213174029047758  0.9912719727870384  0.4672882403539572
  0.4213173721860198  0.0087280174167270  0.4672882174067807
  0.9494595764218619  0.7430641490968686  0.4390939843220714
  0.4494595522948893  0.2569358370494514  0.4390939534784423
 
  0.00000000E+00  0.00000000E+00  0.00000000E+00
  0.00000000E+00  0.00000000E+00  0.00000000E+00
  0.00000000E+00  0.00000000E+00  0.00000000E+00
  0.00000000E+00  0.00000000E+00  0.00000000E+00
  0.00000000E+00  0.00000000E+00  0.00000000E+00
  0.00000000E+00  0.00000000E+00  0.00000000E+00
  0.00000000E+00  0.00000000E+00  0.00000000E+00
  0.00000000E+00  0.00000000E+00  0.00000000E+00
  0.00000000E+00  0.00000000E+00  0.00000000E+00
  0.00000000E+00  0.00000000E+00  0.00000000E+00
  0.00000000E+00  0.00000000E+00  0.00000000E+00
  0.00000000E+00  0.00000000E+00  0.00000000E+00
  0.00000000E+00  0.00000000E+00  0.00000000E+00
  0.00000000E+00  0.00000000E+00  0.00000000E+00
  0.00000000E+00  0.00000000E+00  0.00000000E+00
  0.00000000E+00  0.00000000E+00  0.00000000E+00
  0.00000000E+00  0.00000000E+00  0.00000000E+00
  0.00000000E+00  0.00000000E+00  0.00000000E+00
  0.00000000E+00  0.00000000E+00  0.00000000E+00
  0.00000000E+00  0.00000000E+00  0.00000000E+00
  0.00000000E+00  0.00000000E+00  0.00000000E+00
  0.00000000E+00  0.00000000E+00  0.00000000E+00
  0.00000000E+00  0.00000000E+00  0.00000000E+00
  0.00000000E+00  0.00000000E+00  0.00000000E+00
  0.00000000E+00  0.00000000E+00  0.00000000E+00
  0.00000000E+00  0.00000000E+00  0.00000000E+00
  0.00000000E+00  0.00000000E+00  0.00000000E+00
  0.00000000E+00  0.00000000E+00  0.00000000E+00
  0.00000000E+00  0.00000000E+00  0.00000000E+00
  0.00000000E+00  0.00000000E+00  0.00000000E+00
  0.00000000E+00  0.00000000E+00  0.00000000E+00
  0.00000000E+00  0.00000000E+00  0.00000000E+00
  0.00000000E+00  0.00000000E+00  0.00000000E+00
  0.00000000E+00  0.00000000E+00  0.00000000E+00
  0.00000000E+00  0.00000000E+00  0.00000000E+00
  0.00000000E+00  0.00000000E+00  0.00000000E+00
  0.00000000E+00  0.00000000E+00  0.00000000E+00
  0.00000000E+00  0.00000000E+00  0.00000000E+00
  0.00000000E+00  0.00000000E+00  0.00000000E+00
  0.00000000E+00  0.00000000E+00  0.00000000E+00
  0.00000000E+00  0.00000000E+00  0.00000000E+00
  0.00000000E+00  0.00000000E+00  0.00000000E+00
  0.00000000E+00  0.00000000E+00  0.00000000E+00
  0.00000000E+00  0.00000000E+00  0.00000000E+00
  0.00000000E+00  0.00000000E+00  0.00000000E+00
  0.00000000E+00  0.00000000E+00  0.00000000E+00
  0.00000000E+00  0.00000000E+00  0.00000000E+00
  0.00000000E+00  0.00000000E+00  0.00000000E+00
  0.00000000E+00  0.00000000E+00  0.00000000E+00
  0.00000000E+00  0.00000000E+00  0.00000000E+00
  0.00000000E+00  0.00000000E+00  0.00000000E+00
  0.00000000E+00  0.00000000E+00  0.00000000E+00
  0.00000000E+00  0.00000000E+00  0.00000000E+00
  0.00000000E+00  0.00000000E+00  0.00000000E+00
  0.00000000E+00  0.00000000E+00  0.00000000E+00
  0.00000000E+00  0.00000000E+00  0.00000000E+00
  0.00000000E+00  0.00000000E+00  0.00000000E+00
  0.00000000E+00  0.00000000E+00  0.00000000E+00
  0.00000000E+00  0.00000000E+00  0.00000000E+00
  0.00000000E+00  0.00000000E+00  0.00000000E+00
  0.00000000E+00  0.00000000E+00  0.00000000E+00
  0.00000000E+00  0.00000000E+00  0.00000000E+00
  0.00000000E+00  0.00000000E+00  0.00000000E+00
  0.00000000E+00  0.00000000E+00  0.00000000E+00
  0.00000000E+00  0.00000000E+00  0.00000000E+00
  0.00000000E+00  0.00000000E+00  0.00000000E+00
  0.00000000E+00  0.00000000E+00  0.00000000E+00
  0.00000000E+00  0.00000000E+00  0.00000000E+00
  0.00000000E+00  0.00000000E+00  0.00000000E+00
  0.00000000E+00  0.00000000E+00  0.00000000E+00
  0.00000000E+00  0.00000000E+00  0.00000000E+00
  0.00000000E+00  0.00000000E+00  0.00000000E+00
  0.00000000E+00  0.00000000E+00  0.00000000E+00
  0.00000000E+00  0.00000000E+00  0.00000000E+00
  0.00000000E+00  0.00000000E+00  0.00000000E+00
  0.00000000E+00  0.00000000E+00  0.00000000E+00
  0.00000000E+00  0.00000000E+00  0.00000000E+00
  0.00000000E+00  0.00000000E+00  0.00000000E+00
  0.00000000E+00  0.00000000E+00  0.00000000E+00
  0.00000000E+00  0.00000000E+00  0.00000000E+00
  0.00000000E+00  0.00000000E+00  0.00000000E+00
  0.00000000E+00  0.00000000E+00  0.00000000E+00
  0.00000000E+00  0.00000000E+00  0.00000000E+00
  0.00000000E+00  0.00000000E+00  0.00000000E+00
  0.00000000E+00  0.00000000E+00  0.00000000E+00
  0.00000000E+00  0.00000000E+00  0.00000000E+00
  0.00000000E+00  0.00000000E+00  0.00000000E+00
  0.00000000E+00  0.00000000E+00  0.00000000E+00
  0.00000000E+00  0.00000000E+00  0.00000000E+00
  0.00000000E+00  0.00000000E+00  0.00000000E+00
  0.00000000E+00  0.00000000E+00  0.00000000E+00
  0.00000000E+00  0.00000000E+00  0.00000000E+00
  0.00000000E+00  0.00000000E+00  0.00000000E+00
  0.00000000E+00  0.00000000E+00  0.00000000E+00
  0.00000000E+00  0.00000000E+00  0.00000000E+00
  0.00000000E+00  0.00000000E+00  0.00000000E+00
  0.00000000E+00  0.00000000E+00  0.00000000E+00
  0.00000000E+00  0.00000000E+00  0.00000000E+00
  0.00000000E+00  0.00000000E+00  0.00000000E+00
  0.00000000E+00  0.00000000E+00  0.00000000E+00
  0.00000000E+00  0.00000000E+00  0.00000000E+00
  0.00000000E+00  0.00000000E+00  0.00000000E+00
  0.00000000E+00  0.00000000E+00  0.00000000E+00
  0.00000000E+00  0.00000000E+00  0.00000000E+00
  0.00000000E+00  0.00000000E+00  0.00000000E+00
  0.00000000E+00  0.00000000E+00  0.00000000E+00
  0.00000000E+00  0.00000000E+00  0.00000000E+00
  0.00000000E+00  0.00000000E+00  0.00000000E+00
  0.00000000E+00  0.00000000E+00  0.00000000E+00
  0.00000000E+00  0.00000000E+00  0.00000000E+00
  0.00000000E+00  0.00000000E+00  0.00000000E+00
  0.00000000E+00  0.00000000E+00  0.00000000E+00
  0.00000000E+00  0.00000000E+00  0.00000000E+00
  0.00000000E+00  0.00000000E+00  0.00000000E+00
  0.00000000E+00  0.00000000E+00  0.00000000E+00
  0.00000000E+00  0.00000000E+00  0.00000000E+00
  0.00000000E+00  0.00000000E+00  0.00000000E+00
  0.00000000E+00  0.00000000E+00  0.00000000E+00
  0.00000000E+00  0.00000000E+00  0.00000000E+00
  0.00000000E+00  0.00000000E+00  0.00000000E+00
